\Problem name: compact

Minimize
OBJROW: C
Subject To
ord(0,1):  - x(0,1) + x(0,2) >= 7
ord(0,2):  x(0,0) - x(0,2) >= 7
ord(1,1):  x(1,0) - x(1,1) >= 4
ord(1,2):  - x(1,0) + x(1,2) >= 3
ord(2,1):  - x(2,1) + x(2,2) >= 7
ord(2,2):  x(2,0) - x(2,2) >= 6
triangle2(0,1,0):  y(0,1,0) + y(1,0,0) = 1
triangle2(0,1,1):  y(0,1,1) + y(1,0,1) = 1
triangle2(0,1,2):  y(0,1,2) + y(1,0,2) = 1
triangle2(0,2,0):  y(0,2,0) + y(2,0,0) = 1
triangle2(0,2,1):  y(0,2,1) + y(2,0,1) = 1
triangle2(0,2,2):  y(0,2,2) + y(2,0,2) = 1
triangle2(1,2,0):  y(1,2,0) + y(2,1,0) = 1
triangle2(1,2,1):  y(1,2,1) + y(2,1,1) = 1
triangle2(1,2,2):  y(1,2,2) + y(2,1,2) = 1
MCLinV(0,1,0):  - x(0,0) + v(0,1,0)p - v(0,1,0)n + x(1,0) = -3
MCLinV(1,0,0):  x(0,0) + v(1,0,0)p - v(1,0,0)n - x(1,0) = -1
MCLin1(0,1,0):  u(0,1,0)p - u(0,1,0)n >= 0
MCLin2(0,1,0):  23 y(1,0,0) + u(0,1,0)p - u(0,1,0)n >= 0
MCLin3(0,1,0):  -36 y(1,0,0) - v(0,1,0)p + v(0,1,0)n + u(0,1,0)p - u(0,1,0)n >= -36
MCLin4(0,1,0):  -36 y(1,0,0) + u(0,1,0)p - u(0,1,0)n <= 0
MCLin5(0,1,0):  23 y(1,0,0) - v(0,1,0)p + v(0,1,0)n + u(0,1,0)p - u(0,1,0)n <= 23
MCLin6(1,0,0):  u(1,0,0)p - u(1,0,0)n >= 0
MCLin7(1,0,0):  40 y(0,1,0) + u(1,0,0)p - u(1,0,0)n >= 0
MCLin8(1,0,0):  -19 y(0,1,0) - v(1,0,0)p + v(1,0,0)n + u(1,0,0)p - u(1,0,0)n >= -19
MCLin9(1,0,0):  -19 y(0,1,0) + u(1,0,0)p - u(1,0,0)n <= 0
MCLin10(1,0,0):  40 y(0,1,0) - v(1,0,0)p + v(1,0,0)n + u(1,0,0)p - u(1,0,0)n <= 40
MCLinV(0,1,1):  - x(0,1) + v(0,1,1)p - v(0,1,1)n + x(1,1) = -4
MCLinV(1,0,1):  x(0,1) + v(1,0,1)p - v(1,0,1)n - x(1,1) = -7
MCLin1(0,1,1):  u(0,1,1)p - u(0,1,1)n >= 0
MCLin2(0,1,1):  34 y(1,0,1) + u(0,1,1)p - u(0,1,1)n >= 0
MCLin3(0,1,1):  -25 y(1,0,1) - v(0,1,1)p + v(0,1,1)n + u(0,1,1)p - u(0,1,1)n >= -25
MCLin4(0,1,1):  -25 y(1,0,1) + u(0,1,1)p - u(0,1,1)n <= 0
MCLin5(0,1,1):  34 y(1,0,1) - v(0,1,1)p + v(0,1,1)n + u(0,1,1)p - u(0,1,1)n <= 34
MCLin6(1,0,1):  u(1,0,1)p - u(1,0,1)n >= 0
MCLin7(1,0,1):  36 y(0,1,1) + u(1,0,1)p - u(1,0,1)n >= 0
MCLin8(1,0,1):  -23 y(0,1,1) - v(1,0,1)p + v(1,0,1)n + u(1,0,1)p - u(1,0,1)n >= -23
MCLin9(1,0,1):  -23 y(0,1,1) + u(1,0,1)p - u(1,0,1)n <= 0
MCLin10(1,0,1):  36 y(0,1,1) - v(1,0,1)p + v(1,0,1)n + u(1,0,1)p - u(1,0,1)n <= 36
MCLinV(0,1,2):  - x(0,2) + v(0,1,2)p - v(0,1,2)n + x(1,2) = -7
MCLinV(1,0,2):  x(0,2) + v(1,0,2)p - v(1,0,2)n - x(1,2) = -7
MCLin1(0,1,2):  u(0,1,2)p - u(0,1,2)n >= 0
MCLin2(0,1,2):  37 y(1,0,2) + u(0,1,2)p - u(0,1,2)n >= 0
MCLin3(0,1,2):  -22 y(1,0,2) - v(0,1,2)p + v(0,1,2)n + u(0,1,2)p - u(0,1,2)n >= -22
MCLin4(0,1,2):  -22 y(1,0,2) + u(0,1,2)p - u(0,1,2)n <= 0
MCLin5(0,1,2):  37 y(1,0,2) - v(0,1,2)p + v(0,1,2)n + u(0,1,2)p - u(0,1,2)n <= 37
MCLin6(1,0,2):  u(1,0,2)p - u(1,0,2)n >= 0
MCLin7(1,0,2):  36 y(0,1,2) + u(1,0,2)p - u(1,0,2)n >= 0
MCLin8(1,0,2):  -23 y(0,1,2) - v(1,0,2)p + v(1,0,2)n + u(1,0,2)p - u(1,0,2)n >= -23
MCLin9(1,0,2):  -23 y(0,1,2) + u(1,0,2)p - u(1,0,2)n <= 0
MCLin10(1,0,2):  36 y(0,1,2) - v(1,0,2)p + v(1,0,2)n + u(1,0,2)p - u(1,0,2)n <= 36
MCLinV(0,2,0):  - x(0,0) + v(0,2,0)p - v(0,2,0)n + x(2,0) = -2
MCLinV(2,0,0):  x(0,0) + v(2,0,0)p - v(2,0,0)n - x(2,0) = -1
MCLin1(0,2,0):  u(0,2,0)p - u(0,2,0)n >= 0
MCLin2(0,2,0):  30 y(2,0,0) + u(0,2,0)p - u(0,2,0)n >= 0
MCLin3(0,2,0):  -28 y(2,0,0) - v(0,2,0)p + v(0,2,0)n + u(0,2,0)p - u(0,2,0)n >= -28
MCLin4(0,2,0):  -28 y(2,0,0) + u(0,2,0)p - u(0,2,0)n <= 0
MCLin5(0,2,0):  30 y(2,0,0) - v(0,2,0)p + v(0,2,0)n + u(0,2,0)p - u(0,2,0)n <= 30
MCLin6(2,0,0):  u(2,0,0)p - u(2,0,0)n >= 0
MCLin7(2,0,0):  31 y(0,2,0) + u(2,0,0)p - u(2,0,0)n >= 0
MCLin8(2,0,0):  -27 y(0,2,0) - v(2,0,0)p + v(2,0,0)n + u(2,0,0)p - u(2,0,0)n >= -27
MCLin9(2,0,0):  -27 y(0,2,0) + u(2,0,0)p - u(2,0,0)n <= 0
MCLin10(2,0,0):  31 y(0,2,0) - v(2,0,0)p + v(2,0,0)n + u(2,0,0)p - u(2,0,0)n <= 31
MCLinV(0,2,1):  - x(0,1) + v(0,2,1)p - v(0,2,1)n + x(2,1) = -7
MCLinV(2,0,1):  x(0,1) + v(2,0,1)p - v(2,0,1)n - x(2,1) = -7
MCLin1(0,2,1):  u(0,2,1)p - u(0,2,1)n >= 0
MCLin2(0,2,1):  36 y(2,0,1) + u(0,2,1)p - u(0,2,1)n >= 0
MCLin3(0,2,1):  -22 y(2,0,1) - v(0,2,1)p + v(0,2,1)n + u(0,2,1)p - u(0,2,1)n >= -22
MCLin4(0,2,1):  -22 y(2,0,1) + u(0,2,1)p - u(0,2,1)n <= 0
MCLin5(0,2,1):  36 y(2,0,1) - v(0,2,1)p + v(0,2,1)n + u(0,2,1)p - u(0,2,1)n <= 36
MCLin6(2,0,1):  u(2,0,1)p - u(2,0,1)n >= 0
MCLin7(2,0,1):  36 y(0,2,1) + u(2,0,1)p - u(2,0,1)n >= 0
MCLin8(2,0,1):  -22 y(0,2,1) - v(2,0,1)p + v(2,0,1)n + u(2,0,1)p - u(2,0,1)n >= -22
MCLin9(2,0,1):  -22 y(0,2,1) + u(2,0,1)p - u(2,0,1)n <= 0
MCLin10(2,0,1):  36 y(0,2,1) - v(2,0,1)p + v(2,0,1)n + u(2,0,1)p - u(2,0,1)n <= 36
MCLinV(0,2,2):  - x(0,2) + v(0,2,2)p - v(0,2,2)n + x(2,2) = -6
MCLinV(2,0,2):  x(0,2) + v(2,0,2)p - v(2,0,2)n - x(2,2) = -7
MCLin1(0,2,2):  u(0,2,2)p - u(0,2,2)n >= 0
MCLin2(0,2,2):  35 y(2,0,2) + u(0,2,2)p - u(0,2,2)n >= 0
MCLin3(0,2,2):  -23 y(2,0,2) - v(0,2,2)p + v(0,2,2)n + u(0,2,2)p - u(0,2,2)n >= -23
MCLin4(0,2,2):  -23 y(2,0,2) + u(0,2,2)p - u(0,2,2)n <= 0
MCLin5(0,2,2):  35 y(2,0,2) - v(0,2,2)p + v(0,2,2)n + u(0,2,2)p - u(0,2,2)n <= 35
MCLin6(2,0,2):  u(2,0,2)p - u(2,0,2)n >= 0
MCLin7(2,0,2):  36 y(0,2,2) + u(2,0,2)p - u(2,0,2)n >= 0
MCLin8(2,0,2):  -22 y(0,2,2) - v(2,0,2)p + v(2,0,2)n + u(2,0,2)p - u(2,0,2)n >= -22
MCLin9(2,0,2):  -22 y(0,2,2) + u(2,0,2)p - u(2,0,2)n <= 0
MCLin10(2,0,2):  36 y(0,2,2) - v(2,0,2)p + v(2,0,2)n + u(2,0,2)p - u(2,0,2)n <= 36
MCLinV(1,2,0):  - x(1,0) + v(1,2,0)p - v(1,2,0)n + x(2,0) = -2
MCLinV(2,1,0):  x(1,0) + v(2,1,0)p - v(2,1,0)n - x(2,0) = -3
MCLin1(1,2,0):  u(1,2,0)p - u(1,2,0)n >= 0
MCLin2(1,2,0):  40 y(2,1,0) + u(1,2,0)p - u(1,2,0)n >= 0
MCLin3(1,2,0):  -19 y(2,1,0) - v(1,2,0)p + v(1,2,0)n + u(1,2,0)p - u(1,2,0)n >= -19
MCLin4(1,2,0):  -19 y(2,1,0) + u(1,2,0)p - u(1,2,0)n <= 0
MCLin5(1,2,0):  40 y(2,1,0) - v(1,2,0)p + v(1,2,0)n + u(1,2,0)p - u(1,2,0)n <= 40
MCLin6(2,1,0):  u(2,1,0)p - u(2,1,0)n >= 0
MCLin7(2,1,0):  24 y(1,2,0) + u(2,1,0)p - u(2,1,0)n >= 0
MCLin8(2,1,0):  -35 y(1,2,0) - v(2,1,0)p + v(2,1,0)n + u(2,1,0)p - u(2,1,0)n >= -35
MCLin9(2,1,0):  -35 y(1,2,0) + u(2,1,0)p - u(2,1,0)n <= 0
MCLin10(2,1,0):  24 y(1,2,0) - v(2,1,0)p + v(2,1,0)n + u(2,1,0)p - u(2,1,0)n <= 24
MCLinV(1,2,1):  - x(1,1) + v(1,2,1)p - v(1,2,1)n + x(2,1) = -7
MCLinV(2,1,1):  x(1,1) + v(2,1,1)p - v(2,1,1)n - x(2,1) = -4
MCLin1(1,2,1):  u(1,2,1)p - u(1,2,1)n >= 0
MCLin2(1,2,1):  36 y(2,1,1) + u(1,2,1)p - u(1,2,1)n >= 0
MCLin3(1,2,1):  -23 y(2,1,1) - v(1,2,1)p + v(1,2,1)n + u(1,2,1)p - u(1,2,1)n >= -23
MCLin4(1,2,1):  -23 y(2,1,1) + u(1,2,1)p - u(1,2,1)n <= 0
MCLin5(1,2,1):  36 y(2,1,1) - v(1,2,1)p + v(1,2,1)n + u(1,2,1)p - u(1,2,1)n <= 36
MCLin6(2,1,1):  u(2,1,1)p - u(2,1,1)n >= 0
MCLin7(2,1,1):  34 y(1,2,1) + u(2,1,1)p - u(2,1,1)n >= 0
MCLin8(2,1,1):  -25 y(1,2,1) - v(2,1,1)p + v(2,1,1)n + u(2,1,1)p - u(2,1,1)n >= -25
MCLin9(2,1,1):  -25 y(1,2,1) + u(2,1,1)p - u(2,1,1)n <= 0
MCLin10(2,1,1):  34 y(1,2,1) - v(2,1,1)p + v(2,1,1)n + u(2,1,1)p - u(2,1,1)n <= 34
MCLinV(1,2,2):  - x(1,2) + v(1,2,2)p - v(1,2,2)n + x(2,2) = -6
MCLinV(2,1,2):  x(1,2) + v(2,1,2)p - v(2,1,2)n - x(2,2) = -7
MCLin1(1,2,2):  u(1,2,2)p - u(1,2,2)n >= 0
MCLin2(1,2,2):  35 y(2,1,2) + u(1,2,2)p - u(1,2,2)n >= 0
MCLin3(1,2,2):  -24 y(2,1,2) - v(1,2,2)p + v(1,2,2)n + u(1,2,2)p - u(1,2,2)n >= -24
MCLin4(1,2,2):  -24 y(2,1,2) + u(1,2,2)p - u(1,2,2)n <= 0
MCLin5(1,2,2):  35 y(2,1,2) - v(1,2,2)p + v(1,2,2)n + u(1,2,2)p - u(1,2,2)n <= 35
MCLin6(2,1,2):  u(2,1,2)p - u(2,1,2)n >= 0
MCLin7(2,1,2):  37 y(1,2,2) + u(2,1,2)p - u(2,1,2)n >= 0
MCLin8(2,1,2):  -22 y(1,2,2) - v(2,1,2)p + v(2,1,2)n + u(2,1,2)p - u(2,1,2)n >= -22
MCLin9(2,1,2):  -22 y(1,2,2) + u(2,1,2)p - u(2,1,2)n <= 0
MCLin10(2,1,2):  37 y(1,2,2) - v(2,1,2)p + v(2,1,2)n + u(2,1,2)p - u(2,1,2)n <= 37
makespan(0):  C - x(0,0) >= 1
makespan(1):  C - x(1,2) >= 7
makespan(2):  C - x(2,0) >= 2
cut_clique_1(0,0):  0.01561 x(0,0) + 0.05906 x(2,0) >= 1
cut_clique_1(1,0):  0.01655 x(0,0) + 0.05906 x(2,0) >= 1
cut_clique_1(2,0):  0.01555 x(0,0) + 0.05906 x(2,0) >= 1
cut_clique_1(3,0):  0.01586 x(0,0) + 0.05906 x(2,0) >= 1
cut_clique_1(4,0):  0.01586 x(0,0) + 0.05965 x(2,0) >= 1
cut_clique_1(5,0):  0.01523 x(0,0) + 0.05965 x(2,0) >= 1
cut_clique_1(6,0):  0.01538 x(0,0) + 0.05965 x(2,0) >= 1
cut_clique_1(7,0):  0.01507 x(0,0) + 0.05965 x(2,0) >= 1
cut_clique_1(8,0):  0.01553 x(0,0) + 0.05965 x(2,0) >= 1
cut_clique_1(9,0):  0.01350 x(0,0) + 0.06237 x(2,0) >= 1
cut_clique_1(10,0):  0.01269 x(0,0) + 0.06237 x(2,0) >= 1
cut_clique_1(11,0):  0.01269 x(0,0) + 0.06299 x(2,0) >= 1
cut_clique_1(12,0):  0.01281 x(0,0) + 0.06299 x(2,0) >= 1
cut_clique_1(13,0):  0.01341 x(0,0) + 0.06236 x(2,0) >= 1
cut_clique_1(14,0):  0.01301 x(0,0) + 0.06236 x(2,0) >= 1
cut_clique_1(15,0):  0.01288 x(0,0) + 0.06236 x(2,0) >= 1
cut_clique_1(16,0):  0.01262 x(0,0) + 0.06236 x(2,0) >= 1
cut_clique_1(17,0):  0.01325 x(0,0) + 0.06236 x(2,0) >= 1
cut_clique_1(18,0):  0.00861 x(0,0) + 0.06750 x(2,0) >= 1
cut_clique_1(19,0):  0.00835 x(0,0) + 0.06750 x(2,0) >= 1
cut_clique_1(20,0):  0.00739 x(0,0) + 0.06843 x(2,0) >= 1
cut_clique_1(21,0):  0.00417 x(0,0) + 0.07212 x(2,0) >= 1
cut_clique_1(22,0):  0.00418 x(0,0) + 0.07212 x(2,0) >= 1
cut_clique_1(23,0):  0.00431 x(0,0) + 0.07212 x(2,0) >= 1
cut_clique_1(24,0):  0.00014 x(0,0) + 0.07677 x(2,0) >= 1
cut_clique_1(25,0):  0.00014 x(0,0) + 0.07677 x(2,0) >= 1
cut_clique_1(26,0):  0.05454 x(0,0) + 0.04967 x(1,0) + 0.00286 x(2,0) >= 1
cut_clique_1(27,0):  0.05454 x(0,0) + 0.04967 x(1,0) + 0.00277 x(2,0) >= 1
cut_clique_1(28,0):  0.05563 x(0,0) + 0.04856 x(1,0) + 0.00202 x(2,0) >= 1
cut_clique_1(29,0):  0.05663 x(0,0) + 0.04481 x(1,0) + 0.00198 x(2,0) >= 1
cut_clique_1(30,0):  0.05663 x(0,0) + 0.04481 x(1,0) + 0.00194 x(2,0) >= 1
cut_clique_1(31,0):  0.05383 x(0,0) + 0.05498 x(1,0) + 0.00192 x(2,0) >= 1
cut_clique_1(32,0):  0.05383 x(0,0) + 0.05498 x(1,0) + 0.00199 x(2,0) >= 1
cut_clique_1(33,0):  0.05383 x(0,0) + 0.05443 x(1,0) + 0.00199 x(2,0) >= 1
cut_clique_1(34,0):  0.05383 x(0,0) + 0.05443 x(1,0) + 0.00193 x(2,0) >= 1
cut_clique_1(35,0):  0.05383 x(0,0) + 0.05661 x(1,0) + 0.00148 x(2,0) >= 1
cut_clique_1(36,0):  0.05383 x(0,0) + 0.05661 x(1,0) + 0.00133 x(2,0) >= 1
cut_clique_1(37,0):  0.05655 x(0,0) + 0.04970 x(1,0) + 0.00068 x(2,0) >= 1
cut_clique_1(38,0):  0.05655 x(0,0) + 0.04970 x(1,0) + 0.00064 x(2,0) >= 1
cut_clique_1(39,0):  0.05655 x(0,0) + 0.04970 x(1,0) + 0.00073 x(2,0) >= 1
cut_clique_1(40,0):  0.06056 x(0,0) + 0.03692 x(1,0) + 0.00030 x(2,0) >= 1
cut_clique_1(41,0):  0.06366 x(0,0) + 0.02695 x(1,0) + 0.00006 x(2,0) >= 1
cut_clique_1(0,1):  0.96523 x(0,1) + 0.97925 x(1,1) + 0.99097 x(2,1) >= 1
cut_clique_1(1,1):  0.98304 x(0,1) + 0.96769 x(1,1) + 0.97993 x(2,1) >= 1
cut_clique_1(2,1):  0.99137 x(0,1) + 0.98098 x(1,1) + 0.94932 x(2,1) >= 1
cut_clique_1(3,1):  0.96564 x(0,1) + 0.99681 x(1,1) + 0.95769 x(2,1) >= 1
cut_clique_1(4,1):  0.96489 x(0,1) + 0.98996 x(1,1) + 0.97520 x(2,1) >= 1
cut_clique_1(5,1):  0.98352 x(0,1) + 0.96401 x(1,1) + 0.99911 x(2,1) >= 1
cut_clique_1(6,1):  0.97873 x(0,1) + 0.98806 x(1,1) + 0.99991 x(2,1) >= 1
cut_clique_1(7,1):  0.99843 x(0,1) + 0.99701 x(1,1) + 0.92786 x(2,1) >= 1
cut_clique_1(8,1):  0.95066 x(0,1) + 0.99414 x(1,1) + 0.99800 x(2,1) >= 1
cut_clique_1(9,1):  0.96523 x(0,1) + 0.97571 x(1,1) + 0.99097 x(2,1) >= 1
cut_clique_1(10,1):  0.99961 x(0,1) + 0.97969 x(1,1) + 0.99708 x(2,1) >= 1
cut_clique_1(11,1):  0.97167 x(0,1) + 0.98722 x(1,1) + 0.97492 x(2,1) >= 1
cut_clique_1(12,1):  0.98921 x(0,1) + 0.95276 x(1,1) + 0.99481 x(2,1) >= 1
cut_clique_1(13,1):  0.99874 x(0,1) + 0.97963 x(1,1) + 0.95574 x(2,1) >= 1
cut_clique_1(14,1):  0.98855 x(0,1) + 0.97007 x(1,1) + 0.99272 x(2,1) >= 1
cut_clique_1(15,1):  0.96385 x(0,1) + 0.95725 x(1,1) + 0.99911 x(2,1) >= 1
cut_clique_1(16,1):  0.93826 x(0,1) + 0.99617 x(1,1) + 0.99320 x(2,1) >= 1
cut_clique_1(17,1):  0.99273 x(0,1) + 0.95433 x(1,1) + 0.98061 x(2,1) >= 1
cut_clique_1(18,1):  0.98955 x(0,1) + 0.99575 x(1,1) + 0.97597 x(2,1) >= 1
cut_clique_1(19,1):  0.98304 x(0,1) + 0.97989 x(1,1) + 0.98010 x(2,1) >= 1
cut_clique_1(20,1):  0.95066 x(0,1) + 0.98420 x(1,1) + 0.99800 x(2,1) >= 1
cut_clique_1(21,1):  0.94657 x(0,1) + 0.99614 x(1,1) + 0.99154 x(2,1) >= 1
cut_clique_1(22,1):  0.99436 x(0,1) + 0.98713 x(1,1) + 0.97502 x(2,1) >= 1
cut_clique_1(23,1):  0.99961 x(0,1) + 0.96010 x(1,1) + 0.99708 x(2,1) >= 1
cut_clique_1(24,1):  0.99273 x(0,1) + 0.99409 x(1,1) + 0.99052 x(2,1) >= 1
cut_clique_1(25,1):  0.96523 x(0,1) + 0.98557 x(1,1) + 0.99097 x(2,1) >= 1
cut_clique_1(26,1):  0.96093 x(0,1) + 0.99508 x(1,1) + 0.99113 x(2,1) >= 1
cut_clique_1(27,1):  0.97986 x(0,1) + 0.97993 x(1,1) + 0.99501 x(2,1) >= 1
cut_clique_1(28,1):  0.99137 x(0,1) + 0.99089 x(1,1) + 0.94932 x(2,1) >= 1
cut_clique_1(29,1):  0.95697 x(0,1) + 0.99699 x(1,1) + 0.98757 x(2,1) >= 1
cut_clique_1(30,1):  0.96385 x(0,1) + 0.95862 x(1,1) + 0.99911 x(2,1) >= 1
cut_clique_1(31,1):  0.98855 x(0,1) + 0.97007 x(1,1) + 0.98289 x(2,1) >= 1
cut_clique_1(32,1):  0.98955 x(0,1) + 0.97583 x(1,1) + 0.99133 x(2,1) >= 1
cut_clique_1(33,1):  0.97577 x(0,1) + 0.99157 x(1,1) + 0.99587 x(2,1) >= 1
cut_clique_1(34,1):  0.98955 x(0,1) + 0.95433 x(1,1) + 0.98061 x(2,1) >= 1
cut_clique_1(35,1):  0.98352 x(0,1) + 0.95862 x(1,1) + 0.99911 x(2,1) >= 1
cut_clique_1(36,1):  0.98577 x(0,1) + 0.99986 x(1,1) + 0.94025 x(2,1) >= 1
cut_clique_1(37,1):  0.96188 x(0,1) + 0.99701 x(1,1) + 0.99481 x(2,1) >= 1
cut_clique_1(38,1):  0.94171 x(0,1) + 0.99508 x(1,1) + 0.99113 x(2,1) >= 1
cut_clique_1(39,1):  0.96093 x(0,1) + 0.98523 x(1,1) + 0.97629 x(2,1) >= 1
cut_clique_1(40,1):  0.94822 x(0,1) + 0.98947 x(1,1) + 0.99272 x(2,1) >= 1
cut_clique_1(41,1):  0.99273 x(0,1) + 0.99409 x(1,1) + 0.98061 x(2,1) >= 1
cut_clique_1(42,1):  0.99638 x(0,1) + 0.99614 x(1,1) + 0.95341 x(2,1) >= 1
cut_clique_1(43,1):  0.95697 x(0,1) + 0.98712 x(1,1) + 0.98757 x(2,1) >= 1
cut_clique_1(44,1):  0.98712 x(0,1) + 0.96090 x(1,1) + 0.97070 x(2,1) >= 1
cut_clique_1(45,1):  0.99258 x(0,1) + 0.93767 x(1,1) + 0.99810 x(2,1) >= 1
cut_clique_1(46,1):  0.98610 x(0,1) + 0.95741 x(1,1) + 0.98094 x(2,1) >= 1
cut_clique_1(47,1):  0.98352 x(0,1) + 0.94511 x(1,1) + 0.99911 x(2,1) >= 1
cut_clique_1(48,1):  0.96093 x(0,1) + 0.99508 x(1,1) + 0.97629 x(2,1) >= 1
cut_clique_1(49,1):  0.93212 x(0,1) + 0.98806 x(1,1) + 0.99991 x(2,1) >= 1
cut_clique_1(0,2):  0.08415 x(0,2) + 0.03179 x(2,2) >= 1
cut_clique_1(1,2):  0.02780 x(0,2) + 0.08828 x(1,2) + 0.00017 x(2,2) >= 1
cut_clique_1(2,2):  0.08469 x(0,2) + 0.02968 x(2,2) >= 1
cut_clique_1(3,2):  0.02857 x(0,2) + 0.08714 x(1,2) + 0.00133 x(2,2) >= 1
cut_clique_1(4,2):  0.02641 x(0,2) + 0.08777 x(1,2) + 0.00102 x(2,2) >= 1
cut_clique_1(5,2):  0.05963 x(1,2) + 0.05087 x(2,2) >= 1
cut_clique_1(6,2):  0.06381 x(1,2) + 0.05087 x(2,2) >= 1
cut_clique_1(7,2):  0.06381 x(1,2) + 0.05341 x(2,2) >= 1
cut_clique_1(8,2):  0.06381 x(1,2) + 0.05021 x(2,2) >= 1
cut_clique_1(9,2):  0.08222 x(0,2) + 0.03263 x(2,2) >= 1
cut_clique_1(10,2):  0.02668 x(0,2) + 0.08777 x(1,2) + 0.00135 x(2,2) >= 1
cut_clique_1(11,2):  0.08469 x(0,2) + 0.03067 x(2,2) >= 1
cut_clique_1(12,2):  0.02600 x(0,2) + 0.08830 x(1,2) + 0.00133 x(2,2) >= 1
cut_clique_1(13,2):  0.03305 x(0,2) + 0.08144 x(1,2) + 0.00133 x(2,2) >= 1
cut_clique_1(14,2):  0.08091 x(1,2) + 0.03584 x(2,2) >= 1
cut_clique_1(15,2):  0.02641 x(0,2) + 0.08777 x(1,2) + 0.00114 x(2,2) >= 1
cut_clique_1(16,2):  0.03159 x(0,2) + 0.08034 x(1,2) + 0.00020 x(2,2) >= 1
cut_clique_1(17,2):  0.03140 x(0,2) + 0.08144 x(1,2) + 0.00133 x(2,2) >= 1
cut_clique_1(18,2):  0.08469 x(0,2) + 0.03092 x(2,2) >= 1
cut_clique_1(19,2):  0.03159 x(0,2) + 0.08034 x(1,2) + 0.00018 x(2,2) >= 1
cut_clique_1(20,2):  0.02780 x(0,2) + 0.08828 x(1,2) + 0.00018 x(2,2) >= 1
cut_clique_1(21,2):  0.08415 x(0,2) + 0.03178 x(2,2) >= 1
cut_clique_1(22,2):  0.08004 x(0,2) + 0.03159 x(2,2) >= 1
cut_clique_1(23,2):  0.08415 x(0,2) + 0.03210 x(2,2) >= 1
cut_clique_1(24,2):  0.08415 x(0,2) + 0.02946 x(2,2) >= 1
cut_clique_1(25,2):  0.02780 x(0,2) + 0.08828 x(1,2) + 0.00020 x(2,2) >= 1
cut_clique_1(26,2):  0.02600 x(0,2) + 0.08714 x(1,2) + 0.00133 x(2,2) >= 1
cut_clique_1(27,2):  0.08564 x(0,2) + 0.03127 x(2,2) >= 1
cut_clique_1(28,2):  0.03550 x(0,2) + 0.07664 x(1,2) + 0.00133 x(2,2) >= 1
cut_clique_1(29,2):  0.08170 x(0,2) + 0.03179 x(2,2) >= 1
cut_clique_1(30,2):  0.08222 x(0,2) + 0.03296 x(2,2) >= 1
cut_clique_1(31,2):  0.08638 x(0,2) + 0.02893 x(2,2) >= 1
cut_clique_1(32,2):  0.08222 x(0,2) + 0.03067 x(2,2) >= 1
cut_clique_1(33,2):  0.03373 x(0,2) + 0.08047 x(1,2) + 0.00133 x(2,2) >= 1
cut_clique_1(34,2):  0.02668 x(0,2) + 0.08777 x(1,2) + 0.00139 x(2,2) >= 1
cut_clique_1(35,2):  0.02747 x(0,2) + 0.08764 x(1,2) + 0.00018 x(2,2) >= 1
cut_clique_1(36,2):  0.07363 x(1,2) + 0.03584 x(2,2) >= 1
cut_clique_1(37,2):  0.08415 x(0,2) + 0.03185 x(2,2) >= 1
cut_clique_1(38,2):  0.02801 x(0,2) + 0.08814 x(1,2) + 0.00012 x(2,2) >= 1
cut_clique_1(39,2):  0.07289 x(1,2) + 0.03548 x(2,2) >= 1
cut_clique_1(40,2):  0.07363 x(1,2) + 0.03548 x(2,2) >= 1
cut_clique_1(41,2):  0.07800 x(1,2) + 0.03513 x(2,2) >= 1
cut_clique_1(42,2):  0.07289 x(1,2) + 0.03513 x(2,2) >= 1
cut_clique_1(43,2):  0.08415 x(0,2) + 0.03274 x(2,2) >= 1
cut_clique_1(44,2):  0.06907 x(1,2) + 0.03833 x(2,2) >= 1
cut_clique_1(45,2):  0.06562 x(1,2) + 0.03960 x(2,2) >= 1
cut_clique_1(46,2):  0.02668 x(0,2) + 0.08777 x(1,2) + 0.00114 x(2,2) >= 1
cut_clique_1(47,2):  0.08268 x(1,2) + 0.03197 x(2,2) >= 1
cut_clique_1(48,2):  0.07849 x(1,2) + 0.03484 x(2,2) >= 1
cut_clique_1(49,2):  0.06219 x(1,2) + 0.04164 x(2,2) >= 1
cut_clique_2(0,1):  0.04701 x(0,1) + 0.22326 x(1,1) + 0.12146 x(2,1) >= 1
cut_clique_2(1,1):  0.04654 x(0,1) + 0.38263 x(1,1) + 0.12268 x(2,1) >= 1
cut_clique_2(2,1):  0.04654 x(0,1) + 0.35104 x(1,1) + 0.12268 x(2,1) >= 1
cut_clique_2(3,1):  0.04701 x(0,1) + 0.22216 x(1,1) + 0.12146 x(2,1) >= 1
cut_clique_2(4,1):  0.04654 x(0,1) + 0.36732 x(1,1) + 0.12268 x(2,1) >= 1
cut_clique_2(5,1):  0.04654 x(0,1) + 0.30397 x(1,1) + 0.12268 x(2,1) >= 1
cut_clique_2(6,1):  0.04701 x(0,1) + 0.23751 x(1,1) + 0.12146 x(2,1) >= 1
cut_clique_2(7,1):  0.04654 x(0,1) + 0.41707 x(1,1) + 0.12268 x(2,1) >= 1
cut_clique_2(8,1):  0.04654 x(0,1) + 0.34653 x(1,1) + 0.12268 x(2,1) >= 1
cut_clique_2(9,1):  0.04654 x(0,1) + 0.44001 x(1,1) + 0.12268 x(2,1) >= 1
cut_clique_2(10,1):  0.04701 x(0,1) + 0.29351 x(1,1) + 0.12146 x(2,1) >= 1
cut_clique_2(11,1):  0.04654 x(0,1) + 0.50448 x(1,1) + 0.12268 x(2,1) >= 1
cut_clique_2(12,1):  0.04654 x(0,1) + 0.23120 x(1,1) + 0.12268 x(2,1) >= 1
cut_clique_2(13,1):  0.04654 x(0,1) + 0.25200 x(1,1) + 0.12268 x(2,1) >= 1
cut_clique_2(14,1):  0.04654 x(0,1) + 0.40765 x(1,1) + 0.12268 x(2,1) >= 1
cut_clique_2(15,1):  0.04654 x(0,1) + 0.50601 x(1,1) + 0.12268 x(2,1) >= 1
cut_clique_2(16,1):  0.04654 x(0,1) + 0.24696 x(1,1) + 0.12268 x(2,1) >= 1
cut_clique_2(17,1):  0.04701 x(0,1) + 0.30158 x(1,1) + 0.12268 x(2,1) >= 1
cut_clique_2(18,1):  0.04701 x(0,1) + 0.30670 x(1,1) + 0.12268 x(2,1) >= 1
cut_clique_2(19,1):  0.04654 x(0,1) + 0.23462 x(1,1) + 0.12268 x(2,1) >= 1
cut_clique_2(20,1):  0.04701 x(0,1) + 0.22672 x(1,1) + 0.12146 x(2,1) >= 1
cut_clique_2(21,1):  0.04654 x(0,1) + 0.45043 x(1,1) + 0.12268 x(2,1) >= 1
cut_clique_2(22,1):  0.04701 x(0,1) + 0.22772 x(1,1) + 0.12146 x(2,1) >= 1
cut_clique_2(23,1):  0.04701 x(0,1) + 0.22227 x(1,1) + 0.12146 x(2,1) >= 1
cut_clique_2(24,1):  0.04701 x(0,1) + 0.29584 x(1,1) + 0.12268 x(2,1) >= 1
cut_clique_2(25,1):  0.04654 x(0,1) + 0.39004 x(1,1) + 0.12268 x(2,1) >= 1
cut_clique_2(26,1):  0.04654 x(0,1) + 0.29062 x(1,1) + 0.12268 x(2,1) >= 1
cut_clique_2(27,1):  0.04654 x(0,1) + 0.44899 x(1,1) + 0.12268 x(2,1) >= 1
cut_clique_2(28,1):  0.04654 x(0,1) + 0.78924 x(1,1) + 0.12268 x(2,1) >= 1
cut_clique_2(29,1):  0.04701 x(0,1) + 0.28697 x(1,1) + 0.12268 x(2,1) >= 1
cut_clique_2(30,1):  0.04654 x(0,1) + 0.39633 x(1,1) + 0.12268 x(2,1) >= 1
cut_clique_2(31,1):  0.04701 x(0,1) + 0.25536 x(1,1) + 0.12146 x(2,1) >= 1
cut_clique_2(32,1):  0.04654 x(0,1) + 0.28408 x(1,1) + 0.12268 x(2,1) >= 1
cut_clique_2(33,1):  0.04654 x(0,1) + 0.32654 x(1,1) + 0.12268 x(2,1) >= 1
cut_clique_2(34,1):  0.04654 x(0,1) + 0.42396 x(1,1) + 0.12268 x(2,1) >= 1
cut_clique_2(35,1):  0.04654 x(0,1) + 0.36434 x(1,1) + 0.12268 x(2,1) >= 1
cut_clique_2(36,1):  0.04701 x(0,1) + 0.21992 x(1,1) + 0.12146 x(2,1) >= 1
cut_clique_2(37,1):  0.04654 x(0,1) + 0.65836 x(1,1) + 0.12268 x(2,1) >= 1
cut_clique_2(38,1):  0.04654 x(0,1) + 0.28898 x(1,1) + 0.12268 x(2,1) >= 1
cut_clique_2(39,1):  0.04654 x(0,1) + 0.33422 x(1,1) + 0.12268 x(2,1) >= 1
cut_clique_2(40,1):  0.04654 x(0,1) + 0.73078 x(1,1) + 0.12268 x(2,1) >= 1
cut_clique_2(41,1):  0.04654 x(0,1) + 0.65184 x(1,1) + 0.12268 x(2,1) >= 1
cut_clique_2(42,1):  0.04654 x(0,1) + 0.45578 x(1,1) + 0.12268 x(2,1) >= 1
cut_clique_2(43,1):  0.04654 x(0,1) + 0.35705 x(1,1) + 0.12268 x(2,1) >= 1
cut_clique_2(44,1):  0.04701 x(0,1) + 0.19328 x(1,1) + 0.12146 x(2,1) >= 1
cut_clique_2(45,1):  0.04654 x(0,1) + 0.57179 x(1,1) + 0.12268 x(2,1) >= 1
cut_clique_2(46,1):  0.04701 x(0,1) + 0.29279 x(1,1) + 0.12268 x(2,1) >= 1
cut_clique_2(47,1):  0.04654 x(0,1) + 0.33426 x(1,1) + 0.12268 x(2,1) >= 1
cut_clique_2(48,1):  0.04654 x(0,1) + 0.47401 x(1,1) + 0.12268 x(2,1) >= 1
cut_clique_2(49,1):  0.04654 x(0,1) + 0.25573 x(1,1) + 0.12268 x(2,1) >= 1
cut_clique_2(0,2):  0.04071 x(0,2) + 0.06317 x(1,2) >= 1
cut_clique_2(1,2):  0.04153 x(0,2) + 0.06191 x(1,2) >= 1
cut_clique_2(2,2):  0.04153 x(0,2) + 0.06249 x(1,2) >= 1
cut_clique_2(3,2):  0.04111 x(0,2) + 0.06249 x(1,2) >= 1
cut_clique_2(4,2):  0.04111 x(0,2) + 0.06187 x(1,2) >= 1
cut_clique_2(5,2):  0.04111 x(0,2) + 0.06125 x(1,2) >= 1
cut_clique_2(6,2):  0.04111 x(0,2) + 0.06063 x(1,2) >= 1
cut_clique_2(7,2):  0.04304 x(0,2) + 0.05902 x(1,2) >= 1
cut_clique_2(8,2):  0.04304 x(0,2) + 0.05784 x(1,2) >= 1
cut_clique_2(9,2):  0.04261 x(0,2) + 0.05784 x(1,2) >= 1
cut_clique_2(10,2):  0.04767 x(0,2) + 0.05669 x(1,2) >= 1
cut_clique_2(11,2):  0.04447 x(0,2) + 0.05725 x(1,2) >= 1
cut_clique_2(12,2):  0.04402 x(0,2) + 0.05725 x(1,2) >= 1
cut_clique_2(13,2):  0.04402 x(0,2) + 0.05499 x(1,2) >= 1
cut_clique_3(0,1):  0.14320 x(0,1) + 0.14475 x(2,1) >= 1
cut_clique_3(1,1):  0.14394 x(0,1) + 0.14412 x(2,1) >= 1
cut_clique_3(2,1):  0.14303 x(0,1) + 0.14387 x(2,1) >= 1
cut_clique_3(3,1):  0.14359 x(0,1) + 0.14293 x(2,1) >= 1
cut_clique_3(4,1):  0.14357 x(0,1) + 0.14463 x(2,1) >= 1
cut_clique_3(5,1):  0.14296 x(0,1) + 0.14289 x(2,1) >= 1
cut_clique_3(6,1):  0.14297 x(0,1) + 0.14557 x(2,1) >= 1
cut_clique_3(7,1):  0.14395 x(0,1) + 0.14374 x(2,1) >= 1
cut_clique_3(8,1):  0.14292 x(0,1) + 0.14292 x(2,1) >= 1
cut_clique_3(9,1):  0.14369 x(0,1) + 0.14394 x(2,1) >= 1
cut_clique_3(10,1):  0.14379 x(0,1) + 0.14348 x(2,1) >= 1
cut_clique_3(11,1):  0.14331 x(0,1) + 0.14309 x(2,1) >= 1
cut_clique_3(12,1):  0.14292 x(0,1) + 0.14554 x(2,1) >= 1
cut_clique_3(13,1):  0.14430 x(0,1) + 0.14330 x(2,1) >= 1
cut_clique_3(14,1):  0.14377 x(0,1) + 0.14401 x(2,1) >= 1
cut_clique_3(15,1):  0.14358 x(0,1) + 0.14348 x(2,1) >= 1
cut_clique_3(16,1):  0.14357 x(0,1) + 0.14289 x(2,1) >= 1
cut_clique_3(17,1):  0.14469 x(0,1) + 0.14311 x(2,1) >= 1
cut_clique_3(18,1):  0.14407 x(0,1) + 0.14415 x(2,1) >= 1
cut_clique_3(19,1):  0.14305 x(0,1) + 0.14470 x(2,1) >= 1
cut_clique_3(20,1):  0.14344 x(0,1) + 0.14302 x(2,1) >= 1
cut_clique_3(21,1):  0.14331 x(0,1) + 0.14481 x(2,1) >= 1
cut_clique_3(22,1):  0.14359 x(0,1) + 0.14289 x(2,1) >= 1
cut_clique_3(23,1):  0.14411 x(0,1) + 0.14289 x(2,1) >= 1
cut_clique_3(24,1):  0.14396 x(0,1) + 0.14330 x(2,1) >= 1
cut_clique_3(25,1):  0.14296 x(0,1) + 0.14321 x(2,1) >= 1
cut_clique_3(26,1):  0.14365 x(0,1) + 0.14448 x(2,1) >= 1
cut_clique_3(27,1):  0.14408 x(0,1) + 0.14403 x(2,1) >= 1
cut_clique_3(28,1):  0.14288 x(0,1) + 0.14557 x(2,1) >= 1
cut_clique_3(29,1):  0.14324 x(0,1) + 0.14311 x(2,1) >= 1
cut_clique_3(30,1):  0.14420 x(0,1) + 0.14321 x(2,1) >= 1
cut_clique_3(31,1):  0.14296 x(0,1) + 0.14389 x(2,1) >= 1
cut_clique_3(32,1):  0.14394 x(0,1) + 0.14437 x(2,1) >= 1
cut_clique_3(33,1):  0.14342 x(0,1) + 0.14509 x(2,1) >= 1
cut_clique_3(34,1):  0.14358 x(0,1) + 0.14493 x(2,1) >= 1
cut_clique_3(35,1):  0.14385 x(0,1) + 0.14428 x(2,1) >= 1
cut_clique_3(36,1):  0.14395 x(0,1) + 0.14408 x(2,1) >= 1
cut_clique_3(37,1):  0.14324 x(0,1) + 0.14443 x(2,1) >= 1
cut_clique_3(38,1):  0.14441 x(0,1) + 0.14289 x(2,1) >= 1
cut_clique_3(39,1):  0.14324 x(0,1) + 0.14298 x(2,1) >= 1
cut_clique_3(40,1):  0.14365 x(0,1) + 0.14303 x(2,1) >= 1
cut_clique_3(41,1):  0.14379 x(0,1) + 0.14400 x(2,1) >= 1
cut_clique_3(42,1):  0.14295 x(0,1) + 0.14321 x(2,1) >= 1
cut_clique_3(43,1):  0.14331 x(0,1) + 0.14327 x(2,1) >= 1
cut_clique_3(44,1):  0.14416 x(0,1) + 0.14329 x(2,1) >= 1
cut_clique_3(45,1):  0.14394 x(0,1) + 0.14293 x(2,1) >= 1
cut_clique_3(46,1):  0.14297 x(0,1) + 0.14412 x(2,1) >= 1
cut_clique_3(47,1):  0.14416 x(0,1) + 0.14335 x(2,1) >= 1
cut_clique_3(48,1):  0.14295 x(0,1) + 0.14469 x(2,1) >= 1
cut_clique_3(49,1):  0.14356 x(0,1) + 0.14384 x(2,1) >= 1
Bounds
 0 <= C <= 44
 14 <= x(0,0) <= 43
 0 <= y(0,1,0) <= 1
 0 <= y(1,0,0) <= 1
 0 <= v(0,1,0)p <= 36
 0 <= v(0,1,0)n <= 23
 0 <= v(1,0,0)p <= 19
 0 <= v(1,0,0)n <= 40
 0 <= u(0,1,0)p <= 440
 0 <= u(0,1,0)n <= 440
 0 <= u(1,0,0)p <= 440
 0 <= u(1,0,0)n <= 440
 0 <= y(0,2,0) <= 1
 0 <= y(2,0,0) <= 1
 0 <= v(0,2,0)p <= 28
 0 <= v(0,2,0)n <= 30
 0 <= v(2,0,0)p <= 27
 0 <= v(2,0,0)n <= 31
 0 <= u(0,2,0)p <= 440
 0 <= u(0,2,0)n <= 440
 0 <= u(2,0,0)p <= 440
 0 <= u(2,0,0)n <= 440
 4 <= x(1,0) <= 34
 0 <= y(1,2,0) <= 1
 0 <= y(2,1,0) <= 1
 0 <= v(1,2,0)p <= 19
 0 <= v(1,2,0)n <= 40
 0 <= v(2,1,0)p <= 35
 0 <= v(2,1,0)n <= 24
 0 <= u(1,2,0)p <= 440
 0 <= u(1,2,0)n <= 440
 0 <= u(2,1,0)p <= 440
 0 <= u(2,1,0)n <= 440
 13 <= x(2,0) <= 42
 0 <= x(0,1) <= 29
 0 <= y(0,1,1) <= 1
 0 <= y(1,0,1) <= 1
 0 <= v(0,1,1)p <= 25
 0 <= v(0,1,1)n <= 34
 0 <= v(1,0,1)p <= 23
 0 <= v(1,0,1)n <= 36
 0 <= u(0,1,1)p <= 440
 0 <= u(0,1,1)n <= 440
 0 <= u(1,0,1)p <= 440
 0 <= u(1,0,1)n <= 440
 0 <= y(0,2,1) <= 1
 0 <= y(2,0,1) <= 1
 0 <= v(0,2,1)p <= 22
 0 <= v(0,2,1)n <= 36
 0 <= v(2,0,1)p <= 22
 0 <= v(2,0,1)n <= 36
 0 <= u(0,2,1)p <= 440
 0 <= u(0,2,1)n <= 440
 0 <= u(2,0,1)p <= 440
 0 <= u(2,0,1)n <= 440
 0 <= x(1,1) <= 30
 0 <= y(1,2,1) <= 1
 0 <= y(2,1,1) <= 1
 0 <= v(1,2,1)p <= 23
 0 <= v(1,2,1)n <= 36
 0 <= v(2,1,1)p <= 25
 0 <= v(2,1,1)n <= 34
 0 <= u(1,2,1)p <= 440
 0 <= u(1,2,1)n <= 440
 0 <= u(2,1,1)p <= 440
 0 <= u(2,1,1)n <= 440
 0 <= x(2,1) <= 29
 7 <= x(0,2) <= 36
 0 <= y(0,1,2) <= 1
 0 <= y(1,0,2) <= 1
 0 <= v(0,1,2)p <= 22
 0 <= v(0,1,2)n <= 37
 0 <= v(1,0,2)p <= 23
 0 <= v(1,0,2)n <= 36
 0 <= u(0,1,2)p <= 440
 0 <= u(0,1,2)n <= 440
 0 <= u(1,0,2)p <= 440
 0 <= u(1,0,2)n <= 440
 0 <= y(0,2,2) <= 1
 0 <= y(2,0,2) <= 1
 0 <= v(0,2,2)p <= 23
 0 <= v(0,2,2)n <= 35
 0 <= v(2,0,2)p <= 22
 0 <= v(2,0,2)n <= 36
 0 <= u(0,2,2)p <= 440
 0 <= u(0,2,2)n <= 440
 0 <= u(2,0,2)p <= 440
 0 <= u(2,0,2)n <= 440
 7 <= x(1,2) <= 37
 0 <= y(1,2,2) <= 1
 0 <= y(2,1,2) <= 1
 0 <= v(1,2,2)p <= 24
 0 <= v(1,2,2)n <= 35
 0 <= v(2,1,2)p <= 22
 0 <= v(2,1,2)n <= 37
 0 <= u(1,2,2)p <= 440
 0 <= u(1,2,2)n <= 440
 0 <= u(2,1,2)p <= 440
 0 <= u(2,1,2)n <= 440
 7 <= x(2,2) <= 36
End
